data/benchmarks/bayes/75-15-2-q.cnf
p cnf 1065 1061
c weights 0.910355 0.08964499999999997 1 1 1 1 1 1 1 1 1 1 1 1 1 1 1 1 1 1 1 1 1 1 1 1 1 1 1 1 1 1 1 1 1 1 1 1 1 1 1 1 1 1 1 1 1 1 1 1 1 1 1 1 1 1 1 1 1 1 1 1 1 1 1 1 1 1 1 1 1 1 1 1 1 1 1 1 1 1 1 1 1 1 1 1 1 1 1 1 1 1 1 1 1 1 1 1 1 1 1 1 1 1 1 1 1 1 1 1 1 1 1 1 1 1 1 1 1 1 1 1 1 1 1 1 1 1 1 1 1 1 1 1 1 1 1 1 1 1 1 1 1 1 1 1 1 1 1 1 1 1 1 1 1 1 1 1 1 1 1 1 1 1 1 1 1 1 1 1 1 1 1 1 1 1 1 1 1 1 1 1 1 1 1 1 1 1 1 1 1 1 1 1 1 1 1 1 1 1 1 1 1 1 1 1 1 1 1 1 1 1 1 1 1 1 1 1 1 1 1 1 1 1 1 1 1 1 1 1 1 1 1 1 1 1 1 1 1 1 1 1 1 1 1 1 1 1 1 1 1 1 1 1 1 1 1 1 1 1 1 1 1 1 1 1 1 1 1 1 1 1 1 1 1 1 1 1 1 1 1 1 1 1 1 1 1 1 1 1 1 1 1 1 1 1 1 1 1 1 1 1 1 1 1 1 1 1 1 1 1 1 1 1 1 1 1 1 1 1 1 1 1 1 1 1 1 1 1 1 1 1 1 1 1 1 1 1 1 1 1 1 1 1 1 1 1 1 1 1 1 1 1 1 1 1 1 1 1 1 1 1 1 1 1 1 1 1 1 1 1 1 1 1 1 1 1 1 1 1 1 1 1 1 1 1 1 1 1 1 1 1 1 1 1 1 1 1 1 1 1 1 1 1 1 1 1 1 1 1 1 1 1 1 1 1 1 1 1 1 1 1 1 1 1 1 1 1 1 1 1 1 1 1 1 1 1 1 1 1 1 1 1 1 1 1 1 1 1 1 0.5 0.5 0.5 0.5 0.5 0.5 0.5 0.5 0.5 0.5 0.5 0.5 0.5 0.5 0.5 0.5 0.256195 0.743805 0.940014 0.059985999999999984 0.5 0.5 0.5 0.5 0.5 0.5 0.5 0.5 0.883228 0.11677199999999999 0.600845 0.39915500000000004 0.5 0.5 0.5 0.5 0.5 0.5 0.5 0.5 0.5 0.5 0.5 0.5 0.5 0.5 0.5 0.5 0.5 0.5 0.5 0.5 0.5 0.5 0.5 0.5 0.675917 0.324083 0.218216 0.781784 0.5 0.5 0.5 0.5 0.5 0.5 0.5 0.5 0.5 0.5 0.5 0.5 0.5 0.5 0.5 0.5 0.5 0.5 0.5 0.5 0.5 0.5 0.5 0.5 0.5 0.5 0.5 0.5 0.5 0.5 0.5 0.5 0.5 0.5 0.5 0.5 0.5 0.5 0.5 0.5 0.5 0.5 0.5 0.5 0.5 0.5 0.5 0.5 0.396892 0.603108 0.273817 0.726183 0.66894 0.33106 0.340982 0.659018 0.5 0.5 0.5 0.5 0.5 0.5 0.5 0.5 0.5 0.5 0.5 0.5 0.5 0.5 0.5 0.5 0.16783 0.83217 0.0789424 0.9210576 0.0524266 0.9475734 0.0427199 0.9572801 0.5 0.5 0.5 0.5 0.5 0.5 0.5 0.5 0.5 0.5 0.5 0.5 0.5 0.5 0.5 0.5 0.910673 0.08932700000000005 0.804016 0.19598400000000005 0.155172 0.844828 0.579613 0.42038699999999996 0.5 0.5 0.5 0.5 0.5 0.5 0.5 0.5 0.5 0.5 0.5 0.5 0.386038 0.613962 0.722667 0.27733300000000005 0.85396 0.14603999999999995 0.268465 0.731535 0.932903 0.06709699999999996 0.320892 0.679108 0.933217 0.06678300000000004 0.592115 0.40788500000000005 0.385366 0.614634 0.508406 0.491594 0.119634 0.880366 0.884478 0.11552200000000001 0.5 0.5 0.5 0.5 0.5 0.5 0.5 0.5 0.915024 0.08497600000000005 0.320639 0.679361 0.470549 0.529451 0.0600224 0.9399776 0.150216 0.849784 0.448642 0.551358 0.334192 0.665808 0.301064 0.698936 0.5 0.5 0.5 0.5 0.5 0.5 0.5 0.5 0.150797 0.849203 0.0352633 0.9647367 0.276459 0.723541 0.0840137 0.9159863 0.5 0.5 0.5 0.5 0.5 0.5 0.5 0.5 0.676321 0.32367900000000005 0.33412 0.66588 0.950675 0.04932499999999995 0.841787 0.15821300000000005 0.5 0.5 0.5 0.5 0.5 0.5 0.5 0.5 0.5 0.5 0.5 0.5 0.5 0.5 0.5 0.5 0.5 0.5 0.5 0.5 0.5 0.5 0.5 0.5 0.5 0.5 0.5 0.5 0.5 0.5 0.5 0.5 0.5 0.5 0.5 0.5 0.5 0.5 0.5 0.5 0.5 0.5 0.5 0.5 0.5 0.5 0.5 0.5 0.5 0.5 0.5 0.5 0.5 0.5 0.5 0.5 0.5 0.5 0.5 0.5 0.5 0.5 0.5 0.5 0.5 0.5 0.5 0.5 0.5 0.5 0.5 0.5 0.5 0.5 0.5 0.5 0.5 0.5 0.5 0.5 0.5 0.5 0.5 0.5 0.5 0.5 0.5 0.5 0.5 0.5 0.5 0.5 0.5 0.5 0.5 0.5 0.5 0.5 0.5 0.5 0.304119 0.695881 0.268361 0.7316389999999999 0.118463 0.881537 0.783895 0.216105 0.5 0.5 0.5 0.5 0.5 0.5 0.5 0.5 0.5 0.5 0.5 0.5 0.5 0.5 0.5 0.5 0.5 0.5 0.5 0.5 0.5 0.5 0.5 0.5 0.5 0.5 0.5 0.5 0.5 0.5 0.5 0.5 0.5 0.5 0.5 0.5 0.5 0.5 0.5 0.5 0.5 0.5 0.5 0.5 0.5 0.5 0.5 0.5 0.5 0.5 0.5 0.5 0.5 0.5 0.5 0.5 0.5 0.5 0.5 0.5 0.5 0.5 0.5 0.5 0.5 0.5 0.5 0.5 0.153836 0.846164 0.993502 0.006498000000000004 0.926824 0.07317600000000002 0.229099 0.7709010000000001 0.5 0.5 0.5 0.5 0.5 0.5 0.5 0.5 0.5 0.5 0.5 0.5 0.5 0.5 0.5 0.5 0.5 0.5 0.5 0.5 0.5 0.5 0.5 0.5 0.5 0.5 0.5 0.5 0.5 0.5 0.5 0.5 0.5 0.5 0.5 0.5 0.5 0.5 0.5 0.5 0.915768 0.08423199999999997 0.468513 0.531487 0.849342 0.15065799999999996 0.144868 0.855132 0.5 0.5 0.5 0.5 0.5 0.5 0.5 0.5 0.5 0.5 0.5 0.5 0.5 0.5 0.5 0.5 0.5 0.5 0.5 0.5 0.5 0.5 0.5 0.5 0.5 0.5 0.5 0.5 0.5 0.5 0.5 0.5 0.5 0.5 0.5 0.5 0.551031 0.44896899999999995 0.658064 0.341936 0.415136 0.584864 0.473549 0.526451 0.5 0.5 0.5 0.5 0.5 0.5 0.5 0.5 0.5 0.5 0.5 0.5 0.5 0.5 0.5 0.5 0.5 0.5 0.5 0.5 0.5 0.5 0.5 0.5 0.5 0.5 0.5 0.5 0.5 0.5 0.5 0.5 0.5 0.5 0.5 0.5 0.5 0.5 0.5 0.5 0.5 0.5 0.5 0.5 0.5 0.5 0.5 0.5 0.5 0.5 0.5 0.5 0.5 0.5 0.5 0.5 0.5 0.5 0.5 0.5 0.5 0.5 0.5 0.5 0.5 0.5 0.5 0.5 0.5 0.5 0.5 0.5 0.612763 0.38723700000000005 0.110678 0.889322 0.0482586 0.9517414 0.530183 0.46981700000000004 0.587766 0.412234 0.785472 0.21452800000000005 0.922732 0.077268 0.53224 0.46775999999999995 0.5 0.5 0.5 0.5 0.5 0.5 0.5 0.5 0.5 0.5 0.5 0.5 0.5 0.5 0.5 0.5 0.5 0.5 0.5 0.5 0.5 0.5 0.5 0.5 0.5 0.5 0.5 0.5 0.5 0.5 0.5 0.5 0.5 0.5 0.5 0.5 0.5 0.5 0.5 0.5 0.5 0.5 0.5 0.5 0.5 0.5 0.5 0.5 0.5 0.5 0.5 0.5 0.5 0.5 0.5 0.5 0.5 0.5 0.5 0.5 0.82816 0.17184 0.261493 0.738507 0.589345 0.410655 0.179255 0.8207450000000001 0.5 0.5 0.5 0.5 0.5 0.5 0.5 0.5 0.5 0.5 0.5 0.5 0.5 0.5 0.5 0.5 0.5 0.5 0.5 0.5 0.5 0.5 0.5 0.5 0.57389 0.42611 0.805682 0.194318 0.0842275 0.9157725 0.770044 0.22995600000000005 0.5 0.5 0.5 0.5 0.5 0.5 0.5 0.5 0.5 0.5 0.5 0.5 0.5 0.5 0.5 0.5 0.604004 0.395996 0.4765 0.5235000000000001 0.594913 0.405087 0.606722 0.393278 0.5 0.5 0.5 0.5 0.5 0.5 0.5 0.5 0.626872 0.373128 0.921658 0.07834200000000002 0.313598 0.686402 0.805502 0.19449799999999995 0.515913 0.48408700000000005 0.11928 0.88072 0.285957 0.714043 0.760489 0.23951100000000003 0.476383 0.523617 0.0888581 0.9111419000000001 0.5 0.5 0.5 0.5 0.5 0.5 0.5 0.5 0.5 0.5 0.5 0.5 0.5 0.5 0.5 0.5 0.5 0.5 0.5 0.5 0.5 0.5 0.5 0.5 0.5 0.5 0.5 0.5 0.5 0.5 0.5 0.5 0.5 0.5 0.5 0.5 0.5 0.5 0.5 0.5 0.5 0.5 0.5 0.5 0.5 0.5 0.5 0.5 0.735151 0.264849 0.210919 0.789081 0.530522 0.46947799999999995 0.572039 0.42796100000000004 0.5 0.5 0.5 0.5 0.5 0.5 0.5 0.5 0.5 0.5 0.5 0.5 0.5 0.5 0.5 0.5 0.5 0.5 0.5 0.5 0.5 0.5 0.5 0.5 0.5 0.5 0.5 0.5 0.5 0.5 0.5 0.5 0.5 0.5 0.5 0.5 0.5 0.5 0.5 0.5 0.979712 0.020287999999999973 0.782263 0.21773699999999996 0.5 0.5 0.5 0.5 0.5 0.5 0.5 0.5 0.5 0.5 0.5 0.5 0.5 0.5 0.5 0.5 0.5 0.5 0.5 0.5 0.5 0.5 0.5 0.5 0.5 0.5 0.5 0.5 0.5 0.5 0.5 0.5 0.5 0.5 0.5 0.5 0.5 0.5 0.5 0.5 0.5 0.5 0.5 0.5 0.5 0.5 0.5 0.5 0.5 0.5 0.5 0.5 0.5 0.5 0.5 0.5 0.134362 0.865638 0.64143 0.35857000000000006 0.0545909 0.9454091 0.475394 0.524606 0.135493 0.864507 0.604978 0.395022 0.95067 0.049329999999999985 0.802641 0.19735899999999995 0.5 0.5 0.5 0.5 0.5 0.5 0.5 0.5 0.0163405 0.9836595 0.50125 0.49875 0.941389 0.05861099999999997 0.935479 0.06452100000000005 0.5 0.5 0.5 0.5 0.5 0.5 0.5 0.5 0.5 0.5 0.5 0.5 0.5 0.5 0.5 0.5 0.5 0.5 0.5 0.5 0.5 0.5 0.5 0.5 0.5 0.5 0.5 0.5 0.5 0.5 0.5 0.5 0.5 0.5 0.5 0.5 0.267591 0.732409 0.559187 0.440813 0.896363 0.10363699999999998 0.283931 0.7160690000000001 0.5 0.5 0.5 0.5 0.5 0.5 0.5 0.5 0.5 0.5 0.5 0.5 0.5 0.5 0.5 0.5 0.5 0.5 0.5 0.5 0.5 0.5 0.5 0.5 0.5 0.5 0.5 0.5 0.5 0.5 0.5 0.5 0.5 0.5 0.5 0.5 0.5 0.5 0.5 0.5 0.83208 0.16791999999999996 0.9672 0.03280000000000005 0.707842 0.29215800000000003 0.116012 0.883988 0.5 0.5 0.5 0.5 0.5 0.5 0.5 0.5 0.0577903 0.9422097 0.227945 0.7720549999999999 0.464139 0.5358609999999999 0.7183 0.28169999999999995 0.637214 0.36278600000000005 0.804561 0.19543900000000003 0.792084 0.207916 0.423351 0.576649 0.401622 0.5983780000000001 0.297942 0.7020580000000001 0.159993 0.840007 0.716496 0.283504 0.361202 0.638798 0.539347 0.460653 0.430458 0.569542 0.769215 0.23078500000000002 0.5 0.5 0.5 0.5 0.5 0.5 0.5 0.5 0.604262 0.39573800000000003 0.713972 0.28602799999999995 0.1872 0.8128 0.170533 0.829467 0.678212 0.32178799999999996 0.24499 0.75501 0.5 0.5 0.5 0.5 0.5 0.5 0.5 0.5 0.942951 0.057049000000000016 0.202915 0.797085 0.725854 0.274146 0.344574 0.6554260000000001 0.5 0.5 0.5 0.5 0.5 0.5 0.5 0.5 0.5 0.5 0.5 0.5 0.5 0.5 0.5 0.5 0.00991097 0.99008903 0.438371 0.5616289999999999 0.516732 0.48326800000000003 0.614173 0.38582700000000003 0.5 0.5 0.5 0.5 0.5 0.5 0.5 0.5 0.5 0.5 0.5 0.5 0.5 0.5 0.5 0.5 0.5 0.5 0.5 0.5 0.5 0.5 0.5 0.5 0.5 0.5 0.5 0.5 0.5 0.5 0.5 0.5 0.5 0.5 0.5 0.5 0.5 0.5 0.5 0.5 0.405203 0.594797 0.782388 0.21761200000000003 0.391383 0.608617 0.921935 0.07806500000000005 0.5 0.5 0.5 0.5 0.5 0.5 0.5 0.5 0.5 0.5 0.5 0.5 0.5 0.5 0.5 0.5 0.5 0.5 0.5 0.5 0.5 0.5 0.5 0.5 0.5 0.5 0.5 0.5 0.5 0.5 0.5 0.5 0.5 0.5 0.5 0.5 0.5 0.5 0.5 0.5 0.5 0.5 0.5 0.5 0.5 0.5 0.5 0.5 0.5 0.5 0.5 0.5 0.62651 0.37349 0.422687 0.577313 0.33757 0.6624300000000001 0.870807 0.129193 0.5 0.5 0.5 0.5 0.5 0.5 0.5 0.5 0.5 0.5 0.5 0.5 0.5 0.5 0.5 0.5 0.5 0.5 0.5 0.5 0.5 0.5 0.5 0.5 0.388142 0.611858 0.563961 0.43603899999999995 0.447763 0.552237 0.00614879 0.99385121 0.5 0.5 0.5 0.5 0.5 0.5 0.5 0.5 0.5 0.5 0.5 0.5 0.5 0.5 0.5 0.5 0.5 0.5 0.5 0.5 0.5 0.5 0.5 0.5 0.666533 0.33346699999999996 0.265108 0.734892 0.493873 0.506127 0.847804 0.152196 0.5 0.5 0.5 0.5 0.5 0.5 0.5 0.5 0.5 0.5 0.5 0.5 0.5 0.5 0.5 0.5 0.5 0.5 0.5 0.5 0.5 0.5 0.5 0.5 0.5 0.5 0.5 0.5 0.428519 0.571481 0.356745 0.643255 0.447286 0.5527139999999999 0.233064 0.7669360000000001 0.5 0.5 0.5 0.5 0.5 0.5 0.5 0.5 0.5 0.5 0.5 0.5 0.5 0.5 0.5 0.5 0.5 0.5 0.5 0.5 0.5 0.5 0.5 0.5 0.5 0.5 0.5 0.5 0.5 0.5 0.5 0.5 0.268892 0.731108 0.472656 0.527344 0.333998 0.666002 0.92669 0.07330999999999999 0.5 0.5 0.5 0.5 0.5 0.5 0.5 0.5 0.5 0.5 0.5 0.5 0.5 0.5 0.5 0.5 0.5 0.5 0.5 0.5 0.5 0.5 0.5 0.5 0.5 0.5 0.5 0.5 0.5 0.5 0.5 0.5 0.5 0.5 0.5 0.5 0.5 0.5 0.5 0.5 0.555069 0.44493099999999997 0.0871886 0.9128114 0.153495 0.8465050000000001 0.481759 0.518241 0.5 0.5 0.5 0.5 0.0589953 0.9410047 0.264272 0.7357279999999999 0.425241 0.574759 0.726643 0.27335699999999996 0.5 0.5 0.5 0.5 0.5 0.5 0.5 0.5 0.654648 0.345352 0.39252 0.60748 0.157415 0.842585 0.284461 0.7155389999999999 0.5 0.5 0.5 0.5 0.5 0.5 0.5 0.5 0.910579 0.08942099999999997 0.561769 0.43823100000000004 0.420794 0.579206 0.730076 0.26992400000000005 0.5 0.5 0.5 0.5 0.5 0.5 0.5 0.5 0.5 0.5 0.5 0.5 0.5 0.5 0.5 0.5 0.5 0.5 0.5 0.5 0.5 0.5 0.5 0.5 0.863296 0.13670400000000005 0.290488 0.7095119999999999 0.305727 0.6942729999999999 0.0207107 0.9792893 0.5 0.5 0.5 0.5 0.5 0.5 0.5 0.5 0.5 0.5 0.5 0.5 0.5 0.5 0.5 0.5 0.00857002 0.99142998 0.790557 0.20944300000000005 0.750562 0.24943800000000005 0.607168 0.39283199999999996 0.5 0.5 0.5 0.5 0.5 0.5 0.5 0.5 0.343297 0.656703 0.796491 0.20350900000000005 0.570859 0.429141 0.232141 0.7678590000000001 0.5 0.5 0.5 0.5 0.5 0.5 0.5 0.5 0.5 0.5 0.5 0.5 0.5 0.5 0.5 0.5 0.5 0.5 0.5 0.5 0.5 0.5 0.5 0.5 0.5 0.5 0.5 0.5 0.5 0.5 0.5 0.5 0.5 0.5 0.5 0.5 0.5 0.5 0.5 0.5 0.5 0.5 0.5 0.5 0.525082 0.47491799999999995 0.211854 0.788146 0.231361 0.768639 0.00914738 0.99085262 0.5 0.5 0.5 0.5 0.5 0.5 0.5 0.5 0.593954 0.406046 0.605241 0.39475899999999997 0.325076 0.6749240000000001 0.0944334 0.9055666 0.838228 0.16177200000000003 0.486644 0.5133559999999999 0.317956 0.682044 0.218372 0.781628 0.606158 0.393842 0.349077 0.6509229999999999 0.895372 0.10462800000000005 0.587619 0.412381 0.5 0.5 0.5 0.5 0.5 0.5 0.5 0.5 0.5 0.5 0.5 0.5 0.5 0.5 0.5 0.5 0.5 0.5 0.5 0.5 0.5 0.5 0.5 0.5 0.182285 0.817715 0.740287 0.25971299999999997 0.44346 0.55654 0.507362 0.492638
-1 -2 0
1 2 0
-2 -3 0
2 3 0
-3 -4 0
3 4 0
-4 -5 0
4 5 0
-5 -234 6 0
-5 234 -6 0
5 -235 6 0
5 235 -6 0
-6 7 0
6 -7 0
-7 8 0
7 -8 0
-8 -240 9 0
-8 240 -9 0
8 -241 9 0
8 241 -9 0
-9 -10 0
9 10 0
-10 -11 0
10 11 0
-11 -12 0
11 12 0
-12 -13 0
12 13 0
-13 -14 0
13 14 0
-14 -15 0
14 15 0
-1 -254 16 0
-1 254 -16 0
1 -255 16 0
1 255 -16 0
-16 -2 17 0
-16 2 17 0
16 -2 -17 0
16 2 -17 0
-17 -3 -18 0
-17 3 18 0
17 -3 18 0
17 3 -18 0
-18 -4 -19 0
-18 4 19 0
18 -4 19 0
18 4 19 0
-19 -5 -20 0
-19 5 20 0
19 -5 20 0
19 5 -20 0
-20 -6 21 0
-20 6 21 0
20 -6 21 0
20 6 -21 0
-21 -7 -22 0
-21 7 -22 0
21 -7 -22 0
21 7 22 0
-22 -8 -280 23 0
-22 -8 280 -23 0
-22 8 -281 23 0
-22 8 281 -23 0
22 -8 -282 23 0
22 -8 282 -23 0
22 8 -283 23 0
22 8 283 -23 0
-23 -9 -24 0
-23 9 24 0
23 -9 -24 0
23 9 24 0
-24 -10 25 0
-24 10 -25 0
24 -10 25 0
24 10 -25 0
-25 -11 -292 26 0
-25 -11 292 -26 0
-25 11 -293 26 0
-25 11 293 -26 0
25 -11 -294 26 0
25 -11 294 -26 0
25 11 -295 26 0
25 11 295 -26 0
-26 -12 -27 0
-26 12 -27 0
26 -12 -27 0
26 12 27 0
-27 -13 28 0
-27 13 -28 0
27 -13 28 0
27 13 -28 0
-28 -14 -304 29 0
-28 -14 304 -29 0
-28 14 -305 29 0
-28 14 305 -29 0
28 -14 -306 29 0
28 -14 306 -29 0
28 14 -307 29 0
28 14 307 -29 0
-29 -15 -30 0
-29 15 30 0
29 -15 -30 0
29 15 -30 0
-16 -31 0
16 31 0
-31 -17 -314 32 0
-31 -17 314 -32 0
-31 17 -315 32 0
-31 17 315 -32 0
31 -17 -316 32 0
31 -17 316 -32 0
31 17 -317 32 0
31 17 317 -32 0
-32 -18 -318 33 0
-32 -18 318 -33 0
-32 18 -319 33 0
-32 18 319 -33 0
32 -18 -320 33 0
32 -18 320 -33 0
32 18 -321 33 0
32 18 321 -33 0
-33 -19 -322 34 0
-33 -19 322 -34 0
-33 19 -323 34 0
-33 19 323 -34 0
33 -19 -324 34 0
33 -19 324 -34 0
33 19 -325 34 0
33 19 325 -34 0
-34 -20 -35 0
-34 20 -35 0
34 -20 -35 0
34 20 35 0
-35 -21 -330 36 0
-35 -21 330 -36 0
-35 21 -331 36 0
-35 21 331 -36 0
35 -21 -332 36 0
35 -21 332 -36 0
35 21 -333 36 0
35 21 333 -36 0
-36 -22 -334 37 0
-36 -22 334 -37 0
-36 22 -335 37 0
-36 22 335 -37 0
36 -22 -336 37 0
36 -22 336 -37 0
36 22 -337 37 0
36 22 337 -37 0
-37 -23 -38 0
-37 23 38 0
37 -23 -38 0
37 23 -38 0
-38 -24 -342 39 0
-38 -24 342 -39 0
-38 24 -343 39 0
-38 24 343 -39 0
38 -24 -344 39 0
38 -24 344 -39 0
38 24 -345 39 0
38 24 345 -39 0
-39 -25 -40 0
-39 25 -40 0
39 -25 -40 0
39 25 40 0
-40 -26 -350 41 0
-40 -26 350 -41 0
-40 26 -351 41 0
-40 26 351 -41 0
40 -26 -352 41 0
40 -26 352 -41 0
40 26 -353 41 0
40 26 353 -41 0
-41 -27 -42 0
-41 27 42 0
41 -27 -42 0
41 27 42 0
-42 -28 -43 0
-42 28 43 0
42 -28 -43 0
42 28 -43 0
-43 -29 -44 0
-43 29 44 0
43 -29 -44 0
43 29 44 0
-44 -30 -45 0
-44 30 45 0
44 -30 45 0
44 30 -45 0
-31 46 0
31 -46 0
-46 -32 -47 0
-46 32 -47 0
46 -32 47 0
46 32 47 0
-47 -33 48 0
-47 33 48 0
47 -33 -48 0
47 33 48 0
-48 -34 49 0
-48 34 -49 0
48 -34 -49 0
48 34 49 0
-49 -35 -50 0
-49 35 50 0
49 -35 50 0
49 35 -50 0
-50 -36 -51 0
-50 36 -51 0
50 -36 51 0
50 36 -51 0
-51 -37 -52 0
-51 37 52 0
51 -37 -52 0
51 37 -52 0
-52 -38 53 0
-52 38 53 0
52 -38 53 0
52 38 -53 0
-53 -39 54 0
-53 39 54 0
53 -39 54 0
53 39 -54 0
-54 -40 -404 55 0
-54 -40 404 -55 0
-54 40 -405 55 0
-54 40 405 -55 0
54 -40 -406 55 0
54 -40 406 -55 0
54 40 -407 55 0
54 40 407 -55 0
-55 -41 -56 0
-55 41 56 0
55 -41 56 0
55 41 56 0
-56 -42 57 0
-56 42 -57 0
56 -42 57 0
56 42 -57 0
-57 -43 -58 0
-57 43 -58 0
57 -43 58 0
57 43 -58 0
-58 -44 -59 0
-58 44 59 0
58 -44 -59 0
58 44 -59 0
-59 -45 -60 0
-59 45 60 0
59 -45 60 0
59 45 60 0
-46 -61 0
46 61 0
-61 -47 62 0
-61 47 -62 0
61 -47 -62 0
61 47 -62 0
-62 -48 -63 0
-62 48 63 0
62 -48 63 0
62 48 63 0
-63 -49 -64 0
-63 49 64 0
63 -49 64 0
63 49 -64 0
-64 -50 -442 65 0
-64 -50 442 -65 0
-64 50 -443 65 0
-64 50 443 -65 0
64 -50 -444 65 0
64 -50 444 -65 0
64 50 -445 65 0
64 50 445 -65 0
-65 -51 -66 0
-65 51 66 0
65 -51 -66 0
65 51 -66 0
-66 -52 -67 0
-66 52 67 0
66 -52 -67 0
66 52 -67 0
-67 -53 68 0
-67 53 -68 0
67 -53 -68 0
67 53 68 0
-68 -54 69 0
-68 54 69 0
68 -54 -69 0
68 54 -69 0
-69 -55 70 0
-69 55 70 0
69 -55 70 0
69 55 -70 0
-70 -56 -466 71 0
-70 -56 466 -71 0
-70 56 -467 71 0
-70 56 467 -71 0
70 -56 -468 71 0
70 -56 468 -71 0
70 56 -469 71 0
70 56 469 -71 0
-71 -57 -72 0
-71 57 72 0
71 -57 72 0
71 57 -72 0
-72 -58 73 0
-72 58 -73 0
72 -58 -73 0
72 58 -73 0
-73 -59 74 0
-73 59 -74 0
73 -59 -74 0
73 59 74 0
-74 -60 75 0
-74 60 -75 0
74 -60 75 0
74 60 -75 0
-61 -76 0
61 76 0
-76 -62 -488 77 0
-76 -62 488 -77 0
-76 62 -489 77 0
-76 62 489 -77 0
76 -62 -490 77 0
76 -62 490 -77 0
76 62 -491 77 0
76 62 491 -77 0
-77 -63 78 0
-77 63 78 0
77 -63 78 0
77 63 -78 0
-78 -64 -79 0
-78 64 79 0
78 -64 79 0
78 64 -79 0
-79 -65 80 0
-79 65 -80 0
79 -65 80 0
79 65 80 0
-80 -66 81 0
-80 66 81 0
80 -66 81 0
80 66 -81 0
-81 -67 82 0
-81 67 82 0
81 -67 82 0
81 67 -82 0
-82 -68 -83 0
-82 68 83 0
82 -68 83 0
82 68 -83 0
-83 -69 84 0
-83 69 84 0
83 -69 84 0
83 69 -84 0
-84 -70 -85 0
-84 70 -85 0
84 -70 85 0
84 70 -85 0
-85 -71 -86 0
-85 71 86 0
85 -71 -86 0
85 71 86 0
-86 -72 -528 87 0
-86 -72 528 -87 0
-86 72 -529 87 0
-86 72 529 -87 0
86 -72 -530 87 0
86 -72 530 -87 0
86 72 -531 87 0
86 72 531 -87 0
-87 -73 -532 88 0
-87 -73 532 -88 0
-87 73 -533 88 0
-87 73 533 -88 0
87 -73 -534 88 0
87 -73 534 -88 0
87 73 -535 88 0
87 73 535 -88 0
-88 -74 -89 0
-88 74 -89 0
88 -74 -89 0
88 74 89 0
-89 -75 90 0
-89 75 -90 0
89 -75 -90 0
89 75 90 0
-76 91 0
76 -91 0
-91 -77 -92 0
-91 77 92 0
91 -77 92 0
91 77 92 0
-92 -78 -93 0
-92 78 93 0
92 -78 -93 0
92 78 -93 0
-93 -79 94 0
-93 79 94 0
93 -79 94 0
93 79 -94 0
-94 -80 95 0
-94 80 -95 0
94 -80 -95 0
94 80 -95 0
-95 -81 96 0
-95 81 96 0
95 -81 96 0
95 81 -96 0
-96 -82 -566 97 0
-96 -82 566 -97 0
-96 82 -567 97 0
-96 82 567 -97 0
96 -82 -568 97 0
96 -82 568 -97 0
96 82 -569 97 0
96 82 569 -97 0
-97 -83 -98 0
-97 83 -98 0
97 -83 98 0
97 83 -98 0
-98 -84 -99 0
-98 84 99 0
98 -84 -99 0
98 84 -99 0
-99 -85 100 0
-99 85 -100 0
99 -85 -100 0
99 85 100 0
-100 -86 -582 101 0
-100 -86 582 -101 0
-100 86 -583 101 0
-100 86 583 -101 0
100 -86 -584 101 0
100 -86 584 -101 0
100 86 -585 101 0
100 86 585 -101 0
-101 -87 -102 0
-101 87 -102 0
101 -87 102 0
101 87 -102 0
-102 -88 103 0
-102 88 103 0
102 -88 -103 0
102 88 -103 0
-103 -89 -594 104 0
-103 -89 594 -104 0
-103 89 -595 104 0
-103 89 595 -104 0
103 -89 -596 104 0
103 -89 596 -104 0
103 89 -597 104 0
103 89 597 -104 0
-104 -90 -105 0
-104 90 105 0
104 -90 105 0
104 90 105 0
-91 -602 106 0
-91 602 -106 0
91 -603 106 0
91 603 -106 0
-106 -92 -604 107 0
-106 -92 604 -107 0
-106 92 -605 107 0
-106 92 605 -107 0
106 -92 -606 107 0
106 -92 606 -107 0
106 92 -607 107 0
106 92 607 -107 0
-107 -93 -608 108 0
-107 -93 608 -108 0
-107 93 -609 108 0
-107 93 609 -108 0
107 -93 -610 108 0
107 -93 610 -108 0
107 93 -611 108 0
107 93 611 -108 0
-108 -94 109 0
-108 94 -109 0
108 -94 109 0
108 94 -109 0
-109 -95 110 0
-109 95 110 0
109 -95 110 0
109 95 -110 0
-110 -96 -111 0
-110 96 -111 0
110 -96 -111 0
110 96 111 0
-111 -97 112 0
-111 97 -112 0
111 -97 -112 0
111 97 -112 0
-112 -98 113 0
-112 98 -113 0
112 -98 113 0
112 98 113 0
-113 -99 114 0
-113 99 114 0
113 -99 114 0
113 99 -114 0
-114 -100 -636 115 0
-114 -100 636 -115 0
-114 100 -637 115 0
-114 100 637 -115 0
114 -100 -638 115 0
114 -100 638 -115 0
114 100 -639 115 0
114 100 639 -115 0
-115 -101 116 0
-115 101 116 0
115 -101 -116 0
115 101 116 0
-116 -102 117 0
-116 102 -117 0
116 -102 117 0
116 102 -117 0
-117 -103 118 0
-117 103 -118 0
117 -103 -118 0
117 103 118 0
-118 -104 119 0
-118 104 -119 0
118 -104 -119 0
118 104 -119 0
-119 -105 -120 0
-119 105 -120 0
119 -105 120 0
119 105 120 0
-106 -660 121 0
-106 660 -121 0
106 -661 121 0
106 661 -121 0
-121 -107 -122 0
-121 107 122 0
121 -107 -122 0
121 107 -122 0
-122 -108 -123 0
-122 108 123 0
122 -108 123 0
122 108 123 0
-123 -109 124 0
-123 109 -124 0
123 -109 124 0
123 109 -124 0
-124 -110 125 0
-124 110 125 0
124 -110 125 0
124 110 -125 0
-125 -111 126 0
-125 111 126 0
125 -111 -126 0
125 111 126 0
-126 -112 127 0
-126 112 -127 0
126 -112 127 0
126 112 -127 0
-127 -113 -128 0
-127 113 -128 0
127 -113 128 0
127 113 -128 0
-128 -114 -690 129 0
-128 -114 690 -129 0
-128 114 -691 129 0
-128 114 691 -129 0
128 -114 -692 129 0
128 -114 692 -129 0
128 114 -693 129 0
128 114 693 -129 0
-129 -115 -694 130 0
-129 -115 694 -130 0
-129 115 -695 130 0
-129 115 695 -130 0
129 -115 -696 130 0
129 -115 696 -130 0
129 115 -697 130 0
129 115 697 -130 0
-130 -116 131 0
-130 116 -131 0
130 -116 -131 0
130 116 -131 0
-131 -117 -702 132 0
-131 -117 702 -132 0
-131 117 -703 132 0
-131 117 703 -132 0
131 -117 -704 132 0
131 -117 704 -132 0
131 117 -705 132 0
131 117 705 -132 0
-132 -118 -133 0
-132 118 -133 0
132 -118 133 0
132 118 -133 0
-133 -119 -134 0
-133 119 -134 0
133 -119 -134 0
133 119 134 0
-134 -120 135 0
-134 120 135 0
134 -120 -135 0
134 120 -135 0
-121 136 0
121 -136 0
-136 -122 137 0
-136 122 -137 0
136 -122 137 0
136 122 -137 0
-137 -123 -724 138 0
-137 -123 724 -138 0
-137 123 -725 138 0
-137 123 725 -138 0
137 -123 -726 138 0
137 -123 726 -138 0
137 123 -727 138 0
137 123 727 -138 0
-138 -124 -139 0
-138 124 139 0
138 -124 139 0
138 124 -139 0
-139 -125 140 0
-139 125 -140 0
139 -125 140 0
139 125 140 0
-140 -126 141 0
-140 126 -141 0
140 -126 141 0
140 126 141 0
-141 -127 -142 0
-141 127 142 0
141 -127 142 0
141 127 142 0
-142 -128 -143 0
-142 128 -143 0
142 -128 143 0
142 128 -143 0
-143 -129 -748 144 0
-143 -129 748 -144 0
-143 129 -749 144 0
-143 129 749 -144 0
143 -129 -750 144 0
143 -129 750 -144 0
143 129 -751 144 0
143 129 751 -144 0
-144 -130 145 0
-144 130 -145 0
144 -130 -145 0
144 130 -145 0
-145 -131 -756 146 0
-145 -131 756 -146 0
-145 131 -757 146 0
-145 131 757 -146 0
145 -131 -758 146 0
145 -131 758 -146 0
145 131 -759 146 0
145 131 759 -146 0
-146 -132 -760 147 0
-146 -132 760 -147 0
-146 132 -761 147 0
-146 132 761 -147 0
146 -132 -762 147 0
146 -132 762 -147 0
146 132 -763 147 0
146 132 763 -147 0
-147 -133 -764 148 0
-147 -133 764 -148 0
-147 133 -765 148 0
-147 133 765 -148 0
147 -133 -766 148 0
147 -133 766 -148 0
147 133 -767 148 0
147 133 767 -148 0
-148 -134 -768 149 0
-148 -134 768 -149 0
-148 134 -769 149 0
-148 134 769 -149 0
148 -134 -770 149 0
148 -134 770 -149 0
148 134 -771 149 0
148 134 771 -149 0
-149 -135 150 0
-149 135 150 0
149 -135 -150 0
149 135 -150 0
-136 -776 151 0
-136 776 -151 0
136 -777 151 0
136 777 -151 0
-151 -137 -778 152 0
-151 -137 778 -152 0
-151 137 -779 152 0
-151 137 779 -152 0
151 -137 -780 152 0
151 -137 780 -152 0
151 137 -781 152 0
151 137 781 -152 0
-152 -138 153 0
-152 138 153 0
152 -138 153 0
152 138 -153 0
-153 -139 -786 154 0
-153 -139 786 -154 0
-153 139 -787 154 0
-153 139 787 -154 0
153 -139 -788 154 0
153 -139 788 -154 0
153 139 -789 154 0
153 139 789 -154 0
-154 -140 -155 0
-154 140 155 0
154 -140 155 0
154 140 -155 0
-155 -141 156 0
-155 141 156 0
155 -141 -156 0
155 141 -156 0
-156 -142 -798 157 0
-156 -142 798 -157 0
-156 142 -799 157 0
-156 142 799 -157 0
156 -142 -800 157 0
156 -142 800 -157 0
156 142 -801 157 0
156 142 801 -157 0
-157 -143 -158 0
-157 143 158 0
157 -143 158 0
157 143 158 0
-158 -144 159 0
-158 144 -159 0
158 -144 -159 0
158 144 -159 0
-159 -145 -160 0
-159 145 160 0
159 -145 -160 0
159 145 -160 0
-160 -146 -161 0
-160 146 161 0
160 -146 161 0
160 146 -161 0
-161 -147 -162 0
-161 147 162 0
161 -147 -162 0
161 147 -162 0
-162 -148 -822 163 0
-162 -148 822 -163 0
-162 148 -823 163 0
-162 148 823 -163 0
162 -148 -824 163 0
162 -148 824 -163 0
162 148 -825 163 0
162 148 825 -163 0
-163 -149 164 0
-163 149 -164 0
163 -149 164 0
163 149 164 0
-164 -150 -165 0
-164 150 -165 0
164 -150 -165 0
164 150 165 0
-151 166 0
151 -166 0
-166 -152 -167 0
-166 152 167 0
166 -152 167 0
166 152 -167 0
-167 -153 -168 0
-167 153 168 0
167 -153 168 0
167 153 -168 0
-168 -154 169 0
-168 154 -169 0
168 -154 -169 0
168 154 169 0
-169 -155 170 0
-169 155 170 0
169 -155 170 0
169 155 -170 0
-170 -156 -852 171 0
-170 -156 852 -171 0
-170 156 -853 171 0
-170 156 853 -171 0
170 -156 -854 171 0
170 -156 854 -171 0
170 156 -855 171 0
170 156 855 -171 0
-171 -157 -172 0
-171 157 172 0
171 -157 -172 0
171 157 172 0
-172 -158 173 0
-172 158 -173 0
172 -158 -173 0
172 158 -173 0
-173 -159 -174 0
-173 159 174 0
173 -159 -174 0
173 159 174 0
-174 -160 -868 175 0
-174 -160 868 -175 0
-174 160 -869 175 0
-174 160 869 -175 0
174 -160 -870 175 0
174 -160 870 -175 0
174 160 -871 175 0
174 160 871 -175 0
-175 -161 176 0
-175 161 176 0
175 -161 -176 0
175 161 -176 0
-176 -162 -177 0
-176 162 -177 0
176 -162 177 0
176 162 -177 0
-177 -163 178 0
-177 163 -178 0
177 -163 -178 0
177 163 178 0
-178 -164 -884 179 0
-178 -164 884 -179 0
-178 164 -885 179 0
-178 164 885 -179 0
178 -164 -886 179 0
178 -164 886 -179 0
178 164 -887 179 0
178 164 887 -179 0
-179 -165 180 0
-179 165 -180 0
179 -165 180 0
179 165 180 0
-166 -181 0
166 181 0
-181 -167 182 0
-181 167 182 0
181 -167 182 0
181 167 -182 0
-182 -168 183 0
-182 168 -183 0
182 -168 183 0
182 168 183 0
-183 -169 -902 184 0
-183 -169 902 -184 0
-183 169 -903 184 0
-183 169 903 -184 0
183 -169 -904 184 0
183 -169 904 -184 0
183 169 -905 184 0
183 169 905 -184 0
-184 -170 -185 0
-184 170 -185 0
184 -170 -185 0
184 170 185 0
-185 -171 186 0
-185 171 186 0
185 -171 186 0
185 171 -186 0
-186 -172 -187 0
-186 172 187 0
186 -172 187 0
186 172 -187 0
-187 -173 -188 0
-187 173 188 0
187 -173 188 0
187 173 188 0
-188 -174 -922 189 0
-188 -174 922 -189 0
-188 174 -923 189 0
-188 174 923 -189 0
188 -174 -924 189 0
188 -174 924 -189 0
188 174 -925 189 0
188 174 925 -189 0
-189 -175 190 0
-189 175 -190 0
189 -175 -190 0
189 175 190 0
-190 -176 -191 0
-190 176 191 0
190 -176 -191 0
190 176 191 0
-191 -177 -192 0
-191 177 -192 0
191 -177 192 0
191 177 -192 0
-192 -178 -193 0
-192 178 193 0
192 -178 -193 0
192 178 -193 0
-193 -179 -194 0
-193 179 194 0
193 -179 -194 0
193 179 194 0
-194 -180 -946 195 0
-194 -180 946 -195 0
-194 180 -947 195 0
-194 180 947 -195 0
194 -180 -948 195 0
194 -180 948 -195 0
194 180 -949 195 0
194 180 949 -195 0
-181 -196 0
181 196 0
-196 -182 -952 197 0
-196 -182 952 -197 0
-196 182 -953 197 0
-196 182 953 -197 0
196 -182 -954 197 0
196 -182 954 -197 0
196 182 -955 197 0
196 182 955 -197 0
-197 -183 198 0
-197 183 198 0
197 -183 -198 0
197 183 -198 0
-198 -184 -960 199 0
-198 -184 960 -199 0
-198 184 -961 199 0
-198 184 961 -199 0
198 -184 -962 199 0
198 -184 962 -199 0
198 184 -963 199 0
198 184 963 -199 0
-199 -185 -200 0
-199 185 -200 0
199 -185 200 0
199 185 -200 0
-200 -186 -968 201 0
-200 -186 968 -201 0
-200 186 -969 201 0
-200 186 969 -201 0
200 -186 -970 201 0
200 -186 970 -201 0
200 186 -971 201 0
200 186 971 -201 0
-201 -187 -202 0
-201 187 -202 0
201 -187 202 0
201 187 202 0
-202 -188 -203 0
-202 188 203 0
202 -188 -203 0
202 188 203 0
-203 -189 204 0
-203 189 -204 0
203 -189 -204 0
203 189 204 0
-204 -190 -984 205 0
-204 -190 984 -205 0
-204 190 -985 205 0
-204 190 985 -205 0
204 -190 -986 205 0
204 -190 986 -205 0
204 190 -987 205 0
204 190 987 -205 0
-205 -191 206 0
-205 191 -206 0
205 -191 -206 0
205 191 -206 0
-206 -192 207 0
-206 192 -207 0
206 -192 207 0
206 192 207 0
-207 -193 -996 208 0
-207 -193 996 -208 0
-207 193 -997 208 0
-207 193 997 -208 0
207 -193 -998 208 0
207 -193 998 -208 0
207 193 -999 208 0
207 193 999 -208 0
-208 -194 209 0
-208 194 -209 0
208 -194 -209 0
208 194 209 0
-209 -195 -1004 210 0
-209 -195 1004 -210 0
-209 195 -1005 210 0
-209 195 1005 -210 0
209 -195 -1006 210 0
209 -195 1006 -210 0
209 195 -1007 210 0
209 195 1007 -210 0
-196 -211 0
196 211 0
-211 -197 -212 0
-211 197 212 0
211 -197 -212 0
211 197 -212 0
-212 -198 -213 0
-212 198 -213 0
212 -198 -213 0
212 198 213 0
-213 -199 -214 0
-213 199 -214 0
213 -199 -214 0
213 199 214 0
-214 -200 -215 0
-214 200 -215 0
214 -200 215 0
214 200 215 0
-215 -201 216 0
-215 201 -216 0
215 -201 -216 0
215 201 -216 0
-216 -202 -1030 217 0
-216 -202 1030 -217 0
-216 202 -1031 217 0
-216 202 1031 -217 0
216 -202 -1032 217 0
216 -202 1032 -217 0
216 202 -1033 217 0
216 202 1033 -217 0
-217 -203 -218 0
-217 203 218 0
217 -203 218 0
217 203 -218 0
-218 -204 -1038 219 0
-218 -204 1038 -219 0
-218 204 -1039 219 0
-218 204 1039 -219 0
218 -204 -1040 219 0
218 -204 1040 -219 0
218 204 -1041 219 0
218 204 1041 -219 0
-219 -205 -1042 220 0
-219 -205 1042 -220 0
-219 205 -1043 220 0
-219 205 1043 -220 0
219 -205 -1044 220 0
219 -205 1044 -220 0
219 205 -1045 220 0
219 205 1045 -220 0
-220 -206 -1046 221 0
-220 -206 1046 -221 0
-220 206 -1047 221 0
-220 206 1047 -221 0
220 -206 -1048 221 0
220 -206 1048 -221 0
220 206 -1049 221 0
220 206 1049 -221 0
-221 -207 -222 0
-221 207 -222 0
221 -207 222 0
221 207 -222 0
-222 -208 223 0
-222 208 -223 0
222 -208 223 0
222 208 223 0
-223 -209 -224 0
-223 209 224 0
223 -209 -224 0
223 209 224 0
-224 -210 -1062 225 0
-224 -210 1062 -225 0
-224 210 -1063 225 0
-224 210 1063 -225 0
224 -210 -1064 225 0
224 -210 1064 -225 0
224 210 -1065 225 0
224 210 1065 -225 0
225 0
