data/benchmarks/bayes/75-15-2-q.gr
p tw 1065 1264
166 181
198 213
8 9
40 41
199 214
36 336
106 660
41 42
189 923
73 74
82 568
74 75
106 107
7 21
107 108
179 887
40 54
123 726
140 141
73 87
173 174
32 320
206 207
220 1045
164 884
196 953
207 208
139 153
172 186
205 220
199 963
138 724
173 187
175 871
22 283
206 220
8 241
151 778
113 114
154 789
133 766
2 17
130 697
146 147
3 18
35 50
136 776
179 180
50 444
219 1039
36 51
106 604
68 83
195 947
174 924
107 605
69 84
101 116
26 351
171 855
113 127
213 214
102 117
146 160
91 602
147 762
40 407
135 150
179 193
129 750
168 183
10 11
137 726
19 325
43 44
76 77
9 24
27 41
42 57
178 884
60 74
55 404
75 90
218 1041
108 123
34 323
194 949
219 1042
106 607
109 124
142 157
16 17
175 190
182 952
193 207
147 765
174 868
49 50
208 223
134 768
50 51
82 83
8 283
64 443
188 924
83 84
115 116
40 351
65 444
34 48
129 694
116 117
41 352
67 81
167 168
54 407
49 63
149 150
100 114
200 201
82 96
182 183
143 749
133 147
115 129
184 903
215 216
33 325
122 137
167 181
200 214
82 567
201 969
206 1047
182 955
115 636
179 886
123 725
134 771
11 26
44 59
137 781
129 697
220 1044
132 702
96 111
196 952
108 610
129 144
202 1031
89 596
197 952
92 607
162 177
144 159
87 528
22 282
210 1007
195 210
149 768
18 19
177 192
8 240
210 225
133 765
152 778
189 925
195 1005
21 331
3 17
103 104
104 594
85 86
36 50
136 137
118 119
174 923
107 604
69 83
169 170
144 751
151 152
62 489
102 116
202 203
121 660
103 117
40 406
135 149
220 1047
164 886
168 182
196 955
97 567
17 315
169 183
137 725
25 26
202 216
138 726
9 23
151 780
31 46
216 1031
32 47
176 177
65 80
219 1041
106 606
109 123
209 210
195 949
191 192
98 113
107 607
142 156
26 353
224 225
131 146
175 189
209 1005
147 764
164 179
176 190
208 222
6 7
148 765
197 212
209 223
39 40
188 923
65 443
72 73
41 351
5 19
38 53
205 984
22 337
54 406
210 1062
6 20
71 86
178 886
143 748
39 53
55 406
104 119
184 902
31 314
72 86
105 120
137 152
34 325
138 153
219 1044
12 13
171 186
201 968
13 14
206 1046
204 219
182 954
46 47
78 79
174 870
79 80
11 25
134 770
64 445
12 26
112 113
44 58
40 353
1 16
45 59
129 696
145 146
78 92
108 609
178 179
89 595
111 125
211 212
146 757
143 751
112 126
212 213
144 158
210 1006
145 159
177 191
178 192
36 337
210 224
224 1062
106 661
18 319
163 823
82 569
101 582
21 330
206 1049
7 22
115 638
8 23
40 55
123 727
62 488
184 185
41 56
11 293
73 88
100 636
74 89
106 121
220 1046
132 704
164 885
196 954
107 122
97 566
139 154
221 1047
17 314
202 1033
140 155
172 187
184 198
197 954
14 15
138 725
117 702
173 188
87 530
47 48
206 221
151 779
48 49
80 81
133 767
152 780
81 82
195 1007
14 28
104 596
114 115
47 61
147 148
24 343
174 925
107 606
80 94
113 128
181 182
146 161
209 1004
214 215
179 194
220 1049
129 751
148 764
21 22
97 569
147 161
180 195
17 317
54 55
137 727
87 88
184 960
88 89
178 885
21 35
121 122
153 154
10 25
55 405
54 68
216 1033
154 155
105 119
43 58
87 101
187 188
32 314
219 1043
76 91
120 134
220 221
153 167
209 1007
147 766
174 869
38 343
188 925
65 445
16 31
41 353
205 986
49 64
210 1064
146 756
82 97
208 996
143 750
83 98
115 130
184 904
116 131
167 182
96 567
149 164
18 318
163 822
142 799
200 215
23 24
225 1062
182 197
56 466
201 970
206 1048
24 25
56 57
115 637
57 58
89 90
8 22
41 55
11 292
141 142
23 37
123 124
73 532
74 88
174 175
56 70
156 157
132 703
107 121
221 1046
108 611
89 103
189 190
202 1032
89 597
140 154
114 690
146 759
222 223
197 953
141 155
87 529
174 188
149 769
93 608
207 221
63 64
224 1064
152 779
131 756
163 825
195 1006
101 584
21 332
104 595
18 33
24 342
130 131
86 582
148 822
62 490
163 164
121 661
100 638
196 197
103 118
33 319
70 466
220 1048
14 305
136 151
164 887
97 568
180 194
221 1049
118 133
17 316
169 184
151 166
202 217
138 727
25 292
117 704
87 532
77 78
151 781
10 24
110 111
216 1032
25 40
128 690
43 57
143 144
72 529
24 345
77 91
107 608
110 124
145 756
209 1006
17 18
143 157
176 191
148 766
35 331
209 224
38 342
100 582
162 822
84 85
39 342
76 489
5 20
205 985
17 31
184 962
117 118
210 1063
6 21
28 305
50 64
178 887
39 54
55 407
83 97
183 184
31 315
72 87
84 98
116 130
216 217
32 316
198 199
96 566
139 787
219 1045
117 131
149 163
115 695
142 798
150 164
204 1038
182 196
180 946
183 197
174 871
86 529
156 853
132 761
38 345
12 27
13 28
45 60
103 595
46 61
78 93
79 94
111 126
146 758
208 998
112 127
145 160
190 985
37 334
19 20
96 569
178 193
224 1063
18 320
163 824
20 21
52 53
101 583
225 1064
169 903
56 468
53 54
115 639
86 87
18 32
19 33
119 120
153 787
11 294
52 66
152 153
186 969
73 534
100 637
33 318
85 99
185 186
132 705
14 304
71 466
186 187
118 132
221 1048
218 219
170 853
119 133
219 220
114 692
146 761
184 199
197 955
117 703
23 281
152 166
87 531
149 771
59 60
185 199
88 532
93 610
92 93
152 781
131 758
25 39
125 126
14 29
72 528
104 597
129 690
16 255
158 159
15 30
47 62
59 73
24 344
159 160
86 584
48 63
80 95
92 106
192 193
81 96
125 139
114 129
183 903
70 468
158 172
35 330
14 307
147 162
191 205
36 331
205 1043
22 23
25 294
76 488
200 969
87 534
184 961
55 56
77 489
114 636
28 304
21 36
160 868
29 305
54 69
128 692
72 531
87 102
32 315
139 786
88 103
131 702
120 135
115 694
107 610
121 136
153 168
154 169
147 767
28 29
86 528
156 852
187 202
148 768
35 333
132 760
29 30
61 62
38 344
100 584
62 63
94 95
13 27
95 96
127 128
76 491
103 594
205 987
210 1065
28 42
128 129
160 161
79 93
28 307
161 162
208 997
184 905
94 108
194 195
31 317
127 141
190 984
96 568
139 789
160 174
142 800
198 960
225 1063
204 1040
169 902
56 467
201 971
180 948
153 786
134 135
154 787
23 38
186 968
73 533
130 695
56 71
50 442
57 72
89 104
170 852
201 202
114 691
90 105
146 760
171 853
134 148
141 156
23 280
123 138
174 189
149 770
156 171
93 609
37 336
207 222
189 204
224 1065
131 757
31 32
101 585
193 997
21 333
169 905
16 254
64 65
15 29
97 98
204 984
86 583
48 62
148 149
148 823
30 44
62 491
63 78
81 95
186 971
100 639
33 320
156 799
114 128
183 902
70 467
14 306
71 468
36 330
205 1042
148 162
4 5
25 293
117 705
37 38
200 968
87 533
196 211
5 234
77 488
70 71
88 534
26 293
29 304
8 281
128 691
72 530
155 156
129 692
137 138
88 102
188 189
170 171
77 92
107 609
221 222
203 204
110 125
145 757
154 168
207 997
143 158
155 169
183 905
187 201
148 767
35 332
188 202
36 333
205 1045
100 583
162 823
51 52
39 343
76 490
200 971
17 32
184 963
77 491
179 884
114 638
28 306
50 65
160 870
29 307
31 316
51 65
84 99
32 317
220 1042
139 788
117 132
131 704
115 696
150 165
204 1039
180 947
199 960
92 605
183 198
175 868
86 530
156 854
148 770
58 59
132 762
154 786
91 92
130 694
24 38
124 125
103 596
57 71
157 158
139 140
58 72
90 104
190 191
144 749
171 852
172 173
208 999
123 137
223 224
124 138
40 404
156 170
190 986
37 335
157 171
189 203
18 321
198 962
193 996
190 204
225 1065
19 322
169 904
56 469
19 34
153 788
63 77
11 295
20 35
52 67
186 970
73 535
156 798
53 68
85 100
218 1038
157 799
71 467
86 101
194 946
130 144
170 854
119 134
114 693
146 762
163 177
23 282
152 167
26 27
185 200
9 240
88 533
93 611
26 292
6 234
27 28
186 201
8 280
131 759
193 999
93 94
129 691
26 40
126 127
59 74
22 335
54 404
204 986
86 585
92 107
148 825
125 140
207 996
33 322
156 801
183 904
70 469
93 107
193 194
158 173
126 140
159 174
191 206
36 332
205 1044
33 34
192 207
25 295
34 35
66 67
200 970
87 535
67 68
99 100
77 490
114 637
26 295
100 101
132 133
160 869
29 306
217 1031
33 47
133 134
128 693
22 37
137 778
66 80
166 167
55 70
131 703
99 113
199 200
107 611
132 146
92 604
145 759
165 179
207 999
210 1004
198 212
148 769
199 213
36 335
100 585
189 922
162 825
39 345
28 43
29 44
61 76
144 748
205 206
62 77
94 109
95 110
127 142
32 319
128 143
160 175
142 801
198 961
2 3
204 1041
161 176
205 219
180 949
199 962
3 4
35 36
194 209
175 870
36 37
68 69
151 777
69 70
101 102
20 34
154 788
2 16
102 103
130 696
53 67
35 49
157 798
50 443
86 100
219 1038
106 603
68 82
168 169
195 946
101 115
26 350
171 854
134 149
147 761
9 10
37 337
129 749
186 200
42 43
201 216
193 998
19 324
108 109
22 334
109 110
204 985
148 824
30 45
42 56
142 143
75 89
175 176
33 321
156 800
64 79
218 1040
108 122
34 322
208 209
157 801
71 469
194 948
159 173
97 112
148 163
192 206
181 196
5 235
5 6
88 535
26 294
8 282
217 1030
64 442
4 19
40 350
22 36
122 123
129 693
37 52
55 69
70 85
145 758
207 998
1 255
33 324
122 136
155 170
188 203
11 12
36 334
170 185
82 566
162 824
44 45
203 218
39 344
96 97
179 885
114 639
29 43
129 130
123 724
160 871
111 112
217 1033
62 76
162 163
144 145
51 66
137 780
95 109
32 318
220 1043
177 178
96 110
128 142
131 705
115 697
129 143
161 175
202 1030
199 961
92 606
162 176
194 208
175 869
22 281
86 531
195 209
156 855
148 771
132 763
151 776
133 764
189 924
195 1004
24 39
103 597
106 602
174 922
58 73
144 750
91 106
217 218
147 760
124 139
40 405
190 987
32 321
129 748
157 172
201 215
198 963
190 205
137 724
19 323
32 33
65 66
98 99
153 789
131 132
216 1030
32 46
64 78
164 165
218 1039
157 800
136 777
50 445
194 947
65 79
97 111
219 1040
106 605
130 145
197 198
170 855
195 948
98 112
146 763
163 178
26 352
23 283
131 145
91 603
147 763
38 39
164 178
9 241
6 235
71 72
197 211
188 922
4 18
104 105
65 442
37 51
41 350
26 41
38 52
138 139
22 336
70 84
54 405
204 987
27 42
71 85
171 172
60 75
104 118
204 205
1 254
33 323
93 108
137 151
34 324
126 141
138 152
170 184
171 185
203 217
1 2
204 218
182 953
193 208
134 769
217 1032
64 444
33 48
40 352
137 779
34 49
66 81
129 695
67 82
99 114
108 608
89 594
100 115
132 147
133 148
165 180
22 280
210 1005
7 8
